(set-logic ALL)
(declare-fun i1 () Int)
(declare-fun it523 () Int)
(declare-fun it524 () Int)
(declare-fun i2 () Int)
(declare-fun it525 () Int)
(declare-fun i3 () Int)
(declare-fun it526 () Int)
(declare-fun i4 () Int)
(declare-fun it527 () Int)
(declare-fun i5 () Int)
(declare-fun it528 () Int)
(declare-fun i6 () Int)
(declare-fun it529 () Int)
(declare-fun i7 () Int)
(declare-fun it625 () Int)
(declare-fun it626 () Int)
(declare-fun it627 () Int)
(declare-fun it628 () Int)
(declare-fun it629 () Int)
(declare-fun it630 () Int)
(declare-fun it631 () Int)
(declare-fun it678 () Int)
(declare-fun it679 () Int)
(declare-fun it680 () Int)
(declare-fun it681 () Int)
(declare-fun it682 () Int)
(declare-fun it683 () Int)
(declare-fun it684 () Int)
(declare-fun it688 () Int)
(declare-fun it689 () Int)
(declare-fun it690 () Int)
(declare-fun it691 () Int)
(declare-fun it692 () Int)
(declare-fun it693 () Int)
(declare-fun it694 () Int)
(declare-fun it707 () Int)
(declare-fun it708 () Int)
(declare-fun it709 () Int)
(declare-fun it710 () Int)
(declare-fun it711 () Int)
(declare-fun it712 () Int)
(declare-fun it713 () Int)
(declare-fun it676 () Int)
(assert (= (+ i1 (- 1)) 0))
(assert (= (+ it523 (- 2)) 0))
(assert (= (+ (* i2 (- 1)) it524 (- 1)) 0))
(assert (= (+ (* i3 (- 1)) it525) 0))
(assert (= (+ (* i4 (- 1)) it526) 0))
(assert (= (+ (* i5 (- 1)) it527) 0))
(assert (= (+ (* i6 (- 1)) it528) 0))
(assert (= (+ (* i7 (- 1)) it529) 0))
(assert (and (<= (+ (* it528 (- 1)) (- 5)) 0)
     (> it525 0)
     (<= (+ it528 (- 5)) 0)
     (= (+ it523 (- 2)) 0)))
(assert (= (+ it625 (- 3)) 0))
(assert (= (+ (* it524 (- 1)) it626 (- 2)) 0))
(assert (= (+ it627 (* it525 (- 1))) 0))
(assert (= (+ it628 (* it525 (- 1))) 0))
(assert (= (+ it629 (* it529 (- 1))) 0))
(assert (= (+ (* it528 (- 1)) it630) 0))
(assert (= (+ it631 (* it529 (- 1))) 0))
(assert (let ((a!1 (< (+ (exp it628 2) (+ 0 (* it629 (- 1))) (exp it630 5)) (+ 0 0))))
  (and a!1 (= (+ it625 (- 3)) 0) (> it628 0))))
(assert (= (+ it678 (- 3)) 0))
(assert (= (+ it679 (* it626 (- 1)) (- 1)) 0))
(assert (= (+ (* it627 (- 1)) it680) 0))
(assert (= (+ (* it628 2) it681) 0))
(assert (= (+ (+ 0 it682) (* (exp it630 3) (+ 0 2)) (+ 0 (* it629 (- 3))))
   (+ 0 0)))
(assert (= (+ it683 (* it630 (- 1))) 0))
(assert (= (+ (* it631 (- 1)) it684) 0))
(assert (let ((a!1 (< (+ (+ 0 (* it682 (- 1))) (exp it681 2) (exp it683 5)) (+ 0 0))))
  (and a!1 (= (+ it678 (- 3)) 0) (< it681 0))))
(assert (= (+ it688 (- 3)) 0))
(assert (= (+ (* it679 (- 1)) it689 (- 1)) 0))
(assert (= (+ (* it680 (- 1)) it690) 0))
(assert (= (+ (* it681 2) it691) 0))
(assert (let ((a!1 (+ (+ 0 (+ (* it682 (- 3)) it692)) (* (exp it683 3) (+ 0 2)))))
  (= a!1 (+ 0 0))))
(assert (= (+ (* it683 (- 1)) it693) 0))
(assert (= (+ (* it684 (- 1)) it694) 0))
(assert (let ((a!1 (< (+ (+ 0 (* it692 (- 1))) (exp it691 2) (exp it693 5)) (+ 0 0)))
      (a!2 (< (+ (+ 0 (* it692 (- 3)))
                 (* (exp it693 3) (+ 0 2))
                 (* (exp it691 2) (+ 0 4))
                 (exp it693 5))
              (+ 0 0))))
  (and a!1 (< (* it691 (- 2)) 0) a!2 (> it691 0) (= (+ it688 (- 3)) 0))))
(assert (= (+ it707 (- 3)) 0))
(assert (= (+ it708 (* it689 (- 1)) (- 2)) 0))
(assert (= (+ it709 (* it690 (- 1))) 0))
(assert (= (+ it710 (* it691 (- 4))) 0))
(assert (= (+ (+ 0 (* it692 (- 9))) (* (exp it693 3) (+ 0 8)) (+ 0 it711))
   (+ 0 0)))
(assert (= (+ (* it693 (- 1)) it712) 0))
(assert (= (+ (* it694 (- 1)) it713) 0))
(assert (let ((a!1 (> (+ (+ 0 (* it711 9))
                 (* (exp it712 5) (+ 0 (- 1)))
                 (* (exp it712 3) (+ 0 (- 8)))
                 (* (exp it710 2) (+ 0 (- 16))))
              (+ 0 0)))
      (a!2 (+ (* (exp it712 5) (+ 0 (- 1))) (exp it712 3)))
      (a!3 (* (* (exp it712 3) (exp 81 (+ it676 (- 1)))) (+ 0 (- 1))))
      (a!4 (* (exp it710 2) (exp (exp 16 (+ it676 (- 1))) (+ 0 2))))
      (a!6 (> (+ (+ 0 (* it711 3))
                 (* (exp it712 5) (+ 0 (- 1)))
                 (* (exp it712 3) (+ 0 (- 2)))
                 (* (exp it710 2) (+ 0 (- 4))))
              (+ 0 0)))
      (a!7 (> (+ (+ 0 it711)
                 (* (exp it712 5) (+ 0 (- 1)))
                 (* (exp it710 2) (+ 0 (- 1))))
              (+ 0 0)))
      (a!8 (* (* (+ 0 it711) (exp 81 (+ it676 (- 1)))) (+ 0 27)))
      (a!9 (* (* (exp it712 3) (exp 81 (+ it676 (- 1)))) (+ 0 (- 27))))
      (a!11 (* (* (+ 0 it711) (exp 81 (+ it676 (- 1)))) (+ 0 3)))
      (a!12 (* (* (exp it712 3) (exp 81 (+ it676 (- 1)))) (+ 0 (- 3))))
      (a!14 (* (* (+ 0 it711) (exp 81 (+ it676 (- 1)))) (+ 0 9)))
      (a!15 (* (* (exp it712 3) (exp 81 (+ it676 (- 1)))) (+ 0 (- 9)))))
(let ((a!5 (+ a!2
              (* (+ 0 it711) (exp 81 (+ it676 (- 1))))
              a!3
              (* a!4 (+ 0 (- 1)))))
      (a!10 (> (+ a!2 a!8 a!9 (* a!4 (+ 0 (- 64)))) (+ 0 0)))
      (a!13 (> (+ a!2 a!11 a!12 (* a!4 (+ 0 (- 4)))) (+ 0 0)))
      (a!16 (> (+ a!2 a!14 a!15 (* a!4 (+ 0 (- 16)))) (+ 0 0))))
  (and (> (* it710 4) 0)
       (> (* it710 2) 0)
       (>= (+ it707 (- 3)) 0)
       a!1
       (> a!5 (+ 0 0))
       a!6
       a!7
       (> it710 0)
       (>= (+ it676 (- 1)) 0)
       (>= (+ (* it707 (- 1)) 3) 0)
       a!10
       (> (* it710 8) 0)
       a!13
       a!16))))
(check-sat)
